<?xml version = "1.0" encoding="UTF-8" standalone="yes"?>
<CPLEXSolution version="1.2">
 <header
   problemName="ilog.cplex"
   solutionName="incumbent"
   solutionIndex="-1"
   objectiveValue="4"
   solutionTypeValue="3"
   solutionTypeString="primal"
   solutionStatusValue="101"
   solutionStatusString="integer optimal solution"
   solutionMethodString="mip"
   primalFeasible="1"
   dualFeasible="1"
   MIPNodes="0"
   MIPIterations="14"
   writeLevel="3"/>
 <quality
   epInt="1.0000000000000001e-05"
   epRHS="9.9999999999999995e-07"
   maxIntInfeas="0"
   maxPrimalInfeas="0"
   maxX="1"
   maxSlack="2"/>
 <variables>
  <variable name="x_0_2_0" index="2" value="1"/>
  <variable name="x_2_0_0" index="5" value="1"/>
  <variable name="x_0_2_1" index="9" value="1"/>
  <variable name="x_2_0_1" index="12" value="1"/>
  <variable name="y_0_0" index="33" value="1"/>
  <variable name="y_1_1" index="34" value="1"/>
  <variable name="u_1_0" index="36" value="1"/>
  <variable name="u_2_0" index="37" value="1"/>
  <variable name="u_1_1" index="38" value="1"/>
  <variable name="u_2_1" index="39" value="1"/>
  <variable name="u_3_0" index="40" value="1"/>
  <variable name="u_3_1" index="41" value="1"/>
 </variables>
 <objectiveValues>
  <objective index="0" name="" value="4"/>
 </objectiveValues>
</CPLEXSolution>
